p cnf 10 44
10 -9 -6 0
10 9 2 0
-10 8 5 0
10 -8 4 0
-10 -8 3 0
-10 -7 -6 0
10 7 -6 0
10 -6 -2 0
-10 -5 2 0
10 4 -1 0
10 -3 1 0
9 8 -4 0
-9 -8 4 0
9 -8 2 0
-9 6 -2 0
-9 4 -3 0
-9 -3 -2 0
8 -7 5 0
-8 -7 -3 0
-8 6 -4 0
8 6 -4 0
-8 -6 3 0
-8 6 2 0
-8 -5 -4 0
-8 -5 2 0
8 -4 -1 0
8 -3 2 0
-7 -6 -4 0
7 6 -4 0
-7 6 2 0
-7 -6 2 0
-7 -6 1 0
-7 -5 4 0
-7 5 2 0
7 -5 1 0
-7 5 1 0
7 4 -3 0
7 4 -2 0
-7 -4 1 0
-6 -5 4 0
-6 -4 -1 0
-6 3 -2 0
-4 -3 1 0
-3 2 -1 0
